17	4
16	29	18	22	
0	0	0	0	0	3	2	3	4	
9	0	6	0	1	3	11	17	17	
7	0	0	1	0	3	6	8	9	
1	5	7	10	0	3	5	10	14	
1	6	9	1	0	3	6	7	11	
250	0	3	0	0	3	15	17	17	
100	7	7	1	0	3	12	17	17	
125	2	0	0	0	3	15	17	17	
250	0	10	10	0	3	11	12	16	
150	0	0	6	0	3	16	17	17	
225	8	0	7	3	3	17	17	17	
175	3	0	0	0	3	13	15	17	
6	0	10	0	5	3	17	17	17	
8	0	10	0	6	3	16	17	17	
6	8	0	9	0	3	17	17	17	
6	0	3	0	1	2	17	17	
0	0	0	0	0	0	
